34 30
6 81
23 544
14 525
17 829
6 404
12 591
26 389
5 566
8 806
15 725
7 56
9 595
19 168
5 661
20 207
1 836
12 71
7 245
12 726
29 19
13 74
27 44
5 410
15 811
3 402
4 763
18 762
4 425
1 686
28 723
29 456
24 997
2 233
2 468
